SECTION Graph
Nodes 247
Edges 505
E 1 9 21
E 1 24 7
E 2 3 14
E 2 10 21
E 3 4 1
E 3 11 21
E 4 12 21
E 5 6 1
E 5 115 2
E 6 7 14
E 6 116 2
E 7 8 1
E 7 117 2
E 8 118 2
E 9 10 1
E 9 13 21
E 9 28 7
E 10 11 14
E 10 14 21
E 11 12 1
E 11 15 21
E 12 16 21
E 13 14 1
E 13 32 7
E 13 185 21
E 14 15 14
E 14 189 21
E 15 16 1
E 15 203 21
E 16 204 21
E 17 18 1
E 17 176 7
E 17 185 2
E 18 19 14
E 18 189 2
E 19 20 1
E 19 203 2
E 20 204 2
E 21 22 1
E 21 213 7
E 21 215 2
E 22 23 14
E 22 216 2
E 23 24 1
E 23 217 2
E 24 218 2
E 25 26 1
E 25 201 7
E 25 206 2
E 25 215 19
E 26 27 14
E 26 208 2
E 26 216 19
E 27 28 1
E 27 212 2
E 27 217 19
E 28 214 2
E 28 218 19
E 29 30 1
E 29 175 7
E 29 180 2
E 29 206 19
E 30 31 14
E 30 182 2
E 30 208 19
E 31 32 1
E 31 200 2
E 31 212 19
E 32 202 2
E 32 214 19
E 33 34 1
E 33 154 7
E 33 160 2
E 33 180 19
E 34 35 14
E 34 162 2
E 34 182 19
E 35 36 1
E 35 174 2
E 35 200 19
E 36 176 2
E 36 185 7
E 36 202 19
E 37 38 1
E 37 194 7
E 37 195 7
E 37 205 2
E 38 39 14
E 38 197 7
E 38 207 2
E 39 40 1
E 39 209 7
E 39 211 2
E 40 210 7
E 40 213 2
E 40 215 7
E 41 42 1
E 41 159 19
E 41 172 7
E 41 179 2
E 42 43 14
E 42 161 19
E 42 181 2
E 43 44 1
E 43 173 19
E 43 199 2
E 44 175 19
E 44 201 2
E 44 206 7
E 45 46 1
E 45 140 19
E 45 150 7
E 45 159 2
E 46 47 14
E 46 142 19
E 46 161 2
E 47 48 1
E 47 153 19
E 47 173 2
E 48 154 19
E 48 175 2
E 48 180 7
E 49 50 1
E 49 53 21
E 49 132 7
E 49 140 4
E 50 51 14
E 50 54 21
E 50 142 4
E 51 52 1
E 51 55 21
E 51 153 4
E 52 56 21
E 52 154 4
E 52 160 9
E 53 54 1
E 53 122 7
E 54 55 14
E 55 56 1
E 57 58 1
E 57 177 5
E 58 178 5
E 58 191 6
E 59 60 1
E 59 193 6
E 59 196 5
E 60 198 5
E 61 62 1
E 61 65 21
E 61 119 1
E 62 63 14
E 62 66 21
E 62 120 1
E 63 64 1
E 63 67 21
E 63 121 1
E 64 68 21
E 64 122 1
E 65 66 1
E 66 67 14
E 67 68 1
E 69 70 2
E 69 166 12
E 69 170 6
E 69 183 7
E 70 168 12
E 70 184 6
E 70 187 7
E 71 72 1
E 71 90 7
E 71 147 9
E 72 73 14
E 72 148 9
E 73 74 1
E 73 163 9
E 74 164 9
E 74 177 7
E 75 76 1
E 75 79 21
E 75 94 7
E 75 147 12
E 76 77 14
E 76 80 21
E 76 148 12
E 77 78 1
E 77 81 21
E 77 163 12
E 78 82 21
E 78 157 7
E 78 164 12
E 79 80 1
E 79 83 21
E 79 98 7
E 80 81 14
E 80 84 21
E 81 82 1
E 81 129 2
E 82 131 2
E 82 137 7
E 83 84 1
E 83 102 7
E 84 85 14
E 85 86 1
E 85 129 19
E 86 125 7
E 86 131 19
E 87 88 1
E 87 91 21
E 87 106 7
E 88 89 14
E 88 92 21
E 89 90 1
E 89 139 9
E 90 141 9
E 91 92 1
E 91 95 21
E 91 110 7
E 92 93 14
E 92 96 21
E 93 94 1
E 93 97 21
E 93 139 12
E 94 98 21
E 94 141 12
E 95 96 1
E 95 99 21
E 95 114 7
E 96 97 14
E 96 100 21
E 97 98 1
E 97 101 21
E 98 102 21
E 99 100 1
E 99 118 7
E 100 101 14
E 101 102 1
E 103 104 1
E 103 107 21
E 104 105 14
E 104 108 21
E 105 106 1
E 105 109 21
E 106 110 21
E 107 108 1
E 107 111 21
E 108 109 14
E 108 112 21
E 109 110 1
E 109 113 21
E 110 114 21
E 111 112 1
E 111 115 21
E 112 113 14
E 112 116 21
E 113 114 1
E 113 117 21
E 114 118 21
E 115 116 1
E 116 117 14
E 117 118 1
E 119 120 1
E 119 123 21
E 120 121 14
E 120 124 21
E 121 122 1
E 121 130 21
E 122 132 21
E 123 124 1
E 123 125 4
E 124 126 4
E 124 130 14
E 125 126 1
E 125 135 19
E 126 127 6
E 126 136 19
E 127 128 2
E 127 143 19
E 128 133 6
E 128 145 19
E 129 131 1
E 130 132 1
E 130 133 4
E 131 135 7
E 132 134 4
E 133 134 1
E 133 149 19
E 134 140 7
E 134 150 19
E 135 136 1
E 135 137 2
E 136 138 2
E 136 143 6
E 137 138 1
E 137 155 19
E 138 144 6
E 138 156 19
E 139 141 1
E 140 142 1
E 141 147 7
E 142 153 14
E 143 144 2
E 143 145 2
E 144 146 2
E 144 165 19
E 145 146 2
E 145 149 6
E 146 151 6
E 146 167 19
E 147 148 1
E 148 163 14
E 149 150 1
E 149 151 2
E 150 152 2
E 151 152 1
E 151 171 19
E 152 159 7
E 152 172 19
E 153 154 1
E 155 156 1
E 155 157 2
E 156 158 2
E 156 165 6
E 157 158 1
E 157 169 12
E 158 166 6
E 158 170 12
E 159 161 1
E 160 162 1
E 161 173 14
E 162 174 14
E 163 164 1
E 164 169 7
E 165 166 2
E 165 167 2
E 166 168 2
E 167 168 2
E 167 171 6
E 168 179 14
E 169 170 1
E 169 177 9
E 170 178 9
E 171 172 1
E 171 184 14
E 172 188 14
E 173 175 1
E 174 176 1
E 177 178 1
E 178 186 6
E 179 181 1
E 179 195 12
E 180 182 1
E 181 197 12
E 181 199 14
E 182 200 14
E 183 186 2
E 183 187 2
E 184 188 1
E 184 192 7
E 185 189 1
E 186 190 2
E 186 191 5
E 187 190 2
E 187 192 6
E 188 194 7
E 188 195 7
E 189 203 14
E 190 193 5
E 190 196 6
E 191 193 2
E 192 194 1
E 192 196 2
E 194 198 2
E 195 197 1
E 196 198 1
E 197 209 14
E 198 205 7
E 199 201 1
E 199 209 12
E 200 202 1
E 201 210 12
E 203 204 1
E 205 207 1
E 206 208 1
E 207 211 14
E 208 212 14
E 209 210 1
E 211 213 1
E 212 214 1
E 215 216 1
E 216 217 14
E 217 218 1
E 1 219 100000
E 2 219 100000
E 3 219 100000
E 4 219 100000
E 5 220 100000
E 6 220 100000
E 7 220 100000
E 8 220 100000
E 9 221 100000
E 10 221 100000
E 11 221 100000
E 12 221 100000
E 13 222 100000
E 14 222 100000
E 15 222 100000
E 16 222 100000
E 17 223 100000
E 18 223 100000
E 19 223 100000
E 20 223 100000
E 21 224 100000
E 22 224 100000
E 23 224 100000
E 24 224 100000
E 25 225 100000
E 26 225 100000
E 27 225 100000
E 28 225 100000
E 29 226 100000
E 30 226 100000
E 31 226 100000
E 32 226 100000
E 33 227 100000
E 34 227 100000
E 35 227 100000
E 36 227 100000
E 37 228 100000
E 38 228 100000
E 39 228 100000
E 40 228 100000
E 41 229 100000
E 42 229 100000
E 43 229 100000
E 44 229 100000
E 45 230 100000
E 46 230 100000
E 47 230 100000
E 48 230 100000
E 49 231 100000
E 50 231 100000
E 51 231 100000
E 52 231 100000
E 53 232 100000
E 54 232 100000
E 55 232 100000
E 56 232 100000
E 57 233 100000
E 58 233 100000
E 59 233 100000
E 60 233 100000
E 61 234 100000
E 62 234 100000
E 63 234 100000
E 64 234 100000
E 65 235 100000
E 66 235 100000
E 67 235 100000
E 68 235 100000
E 69 236 100000
E 70 236 100000
E 71 237 100000
E 72 237 100000
E 73 237 100000
E 74 237 100000
E 75 238 100000
E 76 238 100000
E 77 238 100000
E 78 238 100000
E 79 239 100000
E 80 239 100000
E 81 239 100000
E 82 239 100000
E 83 240 100000
E 84 240 100000
E 85 240 100000
E 86 240 100000
E 87 241 100000
E 88 241 100000
E 89 241 100000
E 90 241 100000
E 91 242 100000
E 92 242 100000
E 93 242 100000
E 94 242 100000
E 95 243 100000
E 96 243 100000
E 97 243 100000
E 98 243 100000
E 99 244 100000
E 100 244 100000
E 101 244 100000
E 102 244 100000
E 103 245 100000
E 104 245 100000
E 105 245 100000
E 106 245 100000
E 107 246 100000
E 108 246 100000
E 109 246 100000
E 110 246 100000
E 111 247 100000
E 112 247 100000
E 113 247 100000
E 114 247 100000
END

SECTION Terminals
Terminals 29
T 219
T 220
T 221
T 222
T 223
T 224
T 225
T 226
T 227
T 228
T 229
T 230
T 231
T 232
T 233
T 234
T 235
T 236
T 237
T 238
T 239
T 240
T 241
T 242
T 243
T 244
T 245
T 246
T 247
END

EOF
